120
150
47
58
58
43
49
45
55
47
49
40
42
58
44
48
58
49
52
45
53
48
43
55
45
58
49
50
45
49
56
43
41
53
59
47
56
44
51
48
51
50
60
45
58
47
56
45
48
45
56
45
49
56
47
55
55
47
48
48
45
52
45
53
55
52
43
40
51
45
54
59
48
43
51
43
56
60
41
58
47
49
49
57
45
51
47
52
44
58
40
58
51
58
45
52
47
41
53
44
53
59
42
54
51
49
45
50
55
45
56
47
47
51
40
42
48
51
51
40
50
60
